tsp_instances/TSP20/instance128.tsp
NODE_COORD_SECTION
0 117 30
1 156 126
2 11 90
3 43 64
4 178 107
5 1 14
6 149 173
7 101 88
8 17 20
9 17 18
10 27 155
11 59 167
12 173 197
13 4 200
14 78 54
15 157 94
16 37 156
17 12 59
18 163 125
19 114 13
