tsp_instances/TSP20/instance128.opt.tour
TOUR_SECTION
1
8
16
5
19
2
13
7
12
14
17
11
3
18
6
10
9
4
15
20
-1